
Gurobi 11.0.3 (linux64) logging started Thu Apr 16 07:14:13 2026

Set parameter LogFile to value "tree/results/blsc/blsc_depth-3_run-3/Full MIP/LogFile_FullModel.txt"
Gurobi Optimizer version 11.0.3 build v11.0.3rc0 (linux64 - "CentOS Linux 7 (Core)")

CPU model: Intel(R) Xeon(R) Platinum 8260 CPU @ 2.40GHz, instruction set [SSE2|AVX|AVX2|AVX512]
Thread count: 96 physical cores, 192 logical processors, using up to 32 threads

Optimize a model with 37570 rows, 26320 columns and 219191 nonzeros
Model fingerprint: 0x620806c2
Model has 3744 general constraints
Variable types: 15064 continuous, 11256 integer (11256 binary)
Coefficient statistics:
  Matrix range     [2e-03, 1e+04]
  Objective range  [2e-03, 1e+04]
  Bounds range     [1e+00, 5e+02]
  RHS range        [1e-04, 5e+02]

User MIP start produced solution with objective -17399.2 (0.09s)
Loaded user MIP start with objective -17399.2

Presolve added 3736 rows and 11232 columns
Presolve time: 0.27s
Presolved: 41306 rows, 37552 columns, 241638 nonzeros
Presolved model has 11232 SOS constraint(s)
Variable types: 15064 continuous, 22488 integer (22488 binary)

Deterministic concurrent LP optimizer: primal and dual simplex (primal and dual model)
Showing primal log only...

Root relaxation presolved: 41305 rows, 37551 columns, 241638 nonzeros

Concurrent spin time: 0.84s (can be avoided by choosing Method=3)

Solved with primal simplex

Root relaxation: objective 1.000000e+00, 25568 iterations, 2.29 seconds (2.16 work units)

    Nodes    |    Current Node    |     Objective Bounds      |     Work
 Expl Unexpl |  Obj  Depth IntInf | Incumbent    BestBd   Gap | It/Node Time

     0     0    1.00000    0 2560 -17399.237    1.00000   100%     -    4s
     0     2    1.00000    0 2560 -17399.237    1.00000   100%     -   27s
H    1     4                    -17399.23718    1.00000   100%   0.0   30s
     7    16    1.00000    3 2561 -17399.237    1.00000   100%   190   39s
    15    32    1.00000    4 2560 -17399.237    1.00000   100%   879   44s
    31    64    1.00000    5 2561 -17399.237    1.00000   100%   997   88s
H   34    64                    -17399.23717    1.00000   100%   915   88s
H   39    64                       0.7585470    1.00000  31.8%   808   88s
    63    96    1.00000    6 2629    0.75855    1.00000  31.8%   699  126s
H   95   128                       0.7585470    1.00000  31.8%   502  308s
H  108   128                       0.7585470    1.00000  31.8%   446  308s
   127   160    1.00000    8 2652    0.75855    1.00000  31.8%   397  352s
   159   192    1.00000    9 2654    0.75855    1.00000  31.8%   329  722s
   191   247    1.00000   10 1743    0.75855    1.00000  31.8%   333  739s
   246   279    1.00000   11 1742    0.75855    1.00000  31.8%   839  858s
   278   476    1.00000   12 1990    0.75855    1.00000  31.8%   895  958s
   475  1260    1.00000   17 1588    0.75855    1.00000  31.8%   912 1176s
  1259  2914    1.00000   28 2726    0.75855    1.00000  31.8%  1989 1566s
  2913  5399    1.00000   41 2720    0.75855    1.00000  31.8%  2114 1865s
  5408  8005    1.00000   80  727    0.75855    1.00000  31.8%  2112 2267s
  8284 10765    1.00000  110 1322    0.75855    1.00000  31.8%  2019 2585s
 11328 13350    1.00000  140 1358    0.75855    1.00000  31.8%  1921 2882s
 14188 15821    1.00000  166 2604    0.75855    1.00000  31.8%  1865 3233s
 17017 15822    1.00000  185    5    0.75855    1.00000  31.8%  1796 3249s
 17019 15823    1.00000  363  127    0.75855    1.00000  31.8%  1796 3267s
 17020 15824    1.00000  167  127    0.75855    1.00000  31.8%  1796 3347s
 17021 15828    1.00000   11 2423    0.75855    1.00000  31.8%  1797 3397s
 17023 15831    1.00000   12  441    0.75855    1.00000  31.8%  1798 3404s
 17027 15838    1.00000   13  556    0.75855    1.00000  31.8%  1798 3416s
 17035 15851    1.00000   14  651    0.75855    1.00000  31.8%  1799 3423s
 17051 15878    1.00000   15  679    0.75855    1.00000  31.8%  1798 3601s

Explored 17083 nodes (30705555 simplex iterations) in 3601.45 seconds (4177.75 work units)
Thread count was 32 (of 192 available processors)

Solution count 5: 0.758547 0.758547 0.758547 ... -17399.2

Time limit reached
Best objective 7.585470299718e-01, best bound 1.000000000000e+00, gap 31.8310%

User-callback calls 1704316, time in user-callback 8.90 sec
